% seed = 1842130

mint = 39;
% maxt = 98;

nActs = 22;
dur = [0,7,2,7,2,5,7,6,7,1,7,5,2,6,1,9,4,1,6,6,7,0];

nSkills = 4;
sreq = [| 0,0,0,0,
	| 1,2,0,2,
	| 0,2,3,0,
	| 1,3,2,3,
	| 0,1,2,2,
	| 1,3,1,2,
	| 0,0,3,3,
	| 1,0,1,2,
	| 3,3,0,0,
	| 3,2,2,1,
	| 0,2,1,1,
	| 2,0,0,1,
	| 0,1,0,3,
	| 1,3,2,1,
	| 3,0,3,3,
	| 0,3,0,3,
	| 0,2,3,2,
	| 0,2,1,3,
	| 3,1,3,0,
	| 0,3,3,0,
	| 1,1,2,2,
	| 0,0,0,0, |];

nResources = 10;
mastery = [| true,true,false,true,
	| false,false,true,false,
	| true,true,true,false,
	| true,true,true,false,
	| true,false,true,false,
	| true,true,true,false,
	| true,true,false,false,
	| false,false,true,false,
	| false,false,true,true,
	| true,true,false,true, |];

nPrecs = 31;
pred = [1,1,1,2,3,3,3,4,4,5,6,6,6,7,7,8,9,10,10,11,12,13,13,14,15,16,17,18,19,20,21];
succ = [2,3,4,16,17,19,6,11,5,8,10,14,7,9,13,12,18,18,21,14,15,20,21,16,17,17,20,20,22,22,22];

nUnrels = 119;
unpred = [2,2,2,2,2,2,2,2,2,2,2,2,2,2,2,2,3,3,3,3,3,3,4,4,4,4,4,4,4,4,5,5,5,5,5,5,5,5,5,5,5,6,6,6,6,6,7,7,7,7,7,7,7,7,7,8,8,8,8,8,8,8,8,8,9,9,9,9,9,9,9,9,9,9,10,10,10,10,10,10,10,10,11,11,11,11,11,11,12,12,12,12,12,12,13,13,13,13,13,13,14,14,14,14,15,15,15,15,16,16,16,17,17,17,18,18,19,19,20];
unsucc = [3,4,5,6,7,8,9,10,11,12,13,14,15,18,19,21,4,5,8,11,12,15,6,7,9,10,13,18,19,21,6,7,9,10,11,13,14,16,18,19,21,8,11,12,15,19,8,10,11,12,14,15,16,17,19,9,10,11,13,14,16,18,19,21,10,11,12,13,14,15,16,17,19,21,11,12,13,14,15,16,17,19,12,13,15,18,19,21,13,14,16,18,19,21,14,15,16,17,18,19,15,18,19,21,16,18,19,21,18,19,21,18,19,21,19,21,20,21,21];

USEFUL_RES = [{},
	{1,3,4,5,6,7,9,10},
	{1,2,3,4,5,6,7,8,9,10},
	{1,2,3,4,5,6,7,8,9,10},
	{1,2,3,4,5,6,7,8,9,10},
	{1,2,3,4,5,6,7,8,9,10},
	{1,2,3,4,5,6,8,9,10},
	{1,2,3,4,5,6,7,8,9,10},
	{1,3,4,5,6,7,10},
	{1,2,3,4,5,6,7,8,9,10},
	{1,2,3,4,5,6,7,8,9,10},
	{1,3,4,5,6,7,9,10},
	{1,3,4,6,7,9,10},
	{1,2,3,4,5,6,7,8,9,10},
	{1,2,3,4,5,6,7,8,9,10},
	{1,3,4,6,7,9,10},
	{1,2,3,4,5,6,7,8,9,10},
	{1,2,3,4,5,6,7,8,9,10},
	{1,2,3,4,5,6,7,8,9,10},
	{1,2,3,4,5,6,7,8,9,10},
	{1,2,3,4,5,6,7,8,9,10},
	{}];

POTENTIAL_ACT = [{2,3,4,5,6,7,8,9,10,11,12,13,14,15,16,17,18,19,20,21},
	{3,4,5,6,7,8,10,11,14,15,17,18,19,20,21},
	{2,3,4,5,6,7,8,9,10,11,12,13,14,15,16,17,18,19,20,21},
	{2,3,4,5,6,7,8,9,10,11,12,13,14,15,16,17,18,19,20,21},
	{2,3,4,5,6,7,8,9,10,11,12,14,15,17,18,19,20,21},
	{2,3,4,5,6,7,8,9,10,11,12,13,14,15,16,17,18,19,20,21},
	{2,3,4,5,6,8,9,10,11,12,13,14,15,16,17,18,19,20,21},
	{3,4,5,6,7,8,10,11,14,15,17,18,19,20,21},
	{2,3,4,5,6,7,8,10,11,12,13,14,15,16,17,18,19,20,21},
	{2,3,4,5,6,7,8,9,10,11,12,13,14,15,16,17,18,19,20,21}];
